# LAMMPS Input Script for Brownian Motion on Spherical Grains with Bonds

variable L equal 50
variable m1 equal ${L}/2+(1/3)
variable m2 equal ${L}/2-(1/3)

units           lj
atom_style       bond 
dimension       3
boundary        p p p

region          box block 0 ${L} 0 ${L} 0 ${L}
create_box      5 box bond/types 1 extra/bond/per/atom 10 extra/special/per/atom 10000

pair_style lj/cut 1.12246
pair_coeff * * 1 1 1.12246
pair_modify shift yes

bond_style fene
bond_coeff 1 30 1.5 1 1
special_bonds fene
lattice sc 1 origin 0 0 0

create_atoms	4 single ${m1} ${m1} ${m1}
create_atoms	2 single ${m2} ${m2} ${m2}
create_atoms    1 box ratio 0.2 12345
group loose type 1
create_bonds single/bond 1 1 2

mass * 1

delete_atoms overlap 0.7 loose all


fix 2 all bond/create 16 1 2 1.1 1 prob 1 45678 iparam 1 2 jparam 2 3

neighbor        1 bin
neigh_modify    every 1 delay 0

fix 5 all nve
fix 4 all langevin 1 1 0.1 55568

thermo 2000 
thermo_style custom step temp pxx pyy pzz

dump            2 all custom 100 DUMPUnloopedChain_Length12.dump id type xu yu zu vx vy vz
dump_modify 2 thresh type != 1

variable stop_growth equal 1
timestep        0.01
run            100000000 every 100 "group mid_chain type == 3" &
		"variable mid_chain_count equal count(mid_chain)" &
		"if '${stop_growth} == 1 && ${mid_chain_count} == 10' then 'unfix 2' 'variable stop_growth equal 0' 'group unbonded type 1' 'delete_atoms group unbonded'"